data;
param nombreJob := 6;
param nombreRessource := 3;
param duree := 1 9 2 4 3 7 4 9 5 6 6 5;
param capaciteRessource := 1 7 2 8 3 13;
param besoinRessource : 1 2 3 :=
                    1   2 7 5
                    2   2 7 2
                    3   1 1 5
                    4   3 5 7
                    5   1 4 4
                    6   2 4 1;
end;

